% The Rogo problem Intro 6
% 
% http://www.rogopuzzle.co.nz/paper-rogos/intro-rogo-6/
%
% Note: this problem has 16 optimal solutions.
% 
rows = 5;
cols = 9;
max_steps = 16;
best = 43;
problem = array2d(1..rows, 1..cols, 
[
 %1 2 3 4 5 6 7,8,9
  W,W,5,2,4,1,W,W,W, % 1
  W,4,W,B,W,W,7,W,W, % 2
  2,W,W,W,7,W,6,W,5, % 3
  1,4,W,3,W,W,W,6,B, % 4
  B,B,7,W,W,3,W,1,B, % 5

]);
